175,33
4,84
152,84
3,55
100,11
47,9
168,32
167,78
136,79
23,49
191,100
52,24
21,49
87,27
172,65
65,70
85,19
91,33
155,41
111,40
5,81
7,97
53,87
166,73
161,65
187,26
29,34
177,89
31,30
195,96
152,77
53,74
84,46
84,24
133,70
125,34
116,73
53,88
181,37
58,47
13,71
55,23
38,81
45,88
49,53
16,35
147,89
33,50
70,74
103,33
